87 95 134 186 178 29 117 101 81 142 6 161 182 140 32 67 9 130 143 172 148 122 103 187 196 160 188 135 121 113 18 132 54 191 50 177 145 146 44 11 163 33 126 183 136 24 170 88 69 89 164 70 158 78 8 99 123 111 184 199 63 14 61 53 94 147 144 98 73 185 12 34 27 138 152 167 197 166 128 68 106 173 176 56 77 52 36 149 162 171 198 66 65 83 15 43 31 151 58 59 107 23 90 38 195 102 72 49 71 193 19 119 10 125 16 62 141 20 181 110 57 85 74 120 80 2 47 64 13 1 82 41 180 22 168 40 75 155 189 0 127 5 157 42 109 133 39 76 92 100 35 131 124 169 17 105 25 46 114 115 139 194 118 112 55 91 93 165 150 3 153 96 129 192 7 48 179 84 26 104 154 86 190 28 37 4 116 51 159 30 156 79 60 97 174 137 45 108 175 21